p cnf 999 35
11 12 13 0
-11 -12 0
-11 -13 0
-12 -13 0
21 22 23 0
-21 -22 0
-21 -23 0
-22 -23 0
31 32 33 0
-31 -32 0
-31 -33 0
-32 -33 0
41 42 43 0
-41 -42 0
-41 -43 0
-42 -43 0
-11 -31 0
-11 -41 0
-12 -32 0
-12 -42 0
-13 -33 0
-13 -43 0
-21 -41 0
-21 -31 0
-22 -42 0
-22 -32 0
-23 -43 0
-23 -33 0
-31 -41 0
-32 -42 0
-33 -43 0
-11 0
-22 0
-31 0
-41 0
